x
1
111
1
111
1
111
1
111
1
111
1
111
1
111
2
1
111
2
1
111
2
1
2
111
2
111
880
878
880
878
880
878
880
878
684
879
684
879
684
879
684
879
684
879
878
684
879
878
684
879
878
879
878
879
878
879
153
155
153
155
153
155
153
155
374
155
549
374
155
549
374
155
549
374
155
549
374
155
896
155
896
155
291
508
291
508
291
508
291
508
291
374
508
549
374
508
549
279
896
279
896
279
896
279
896
279
896
279
896
417
178
417
178
418
191
417
191
417
191
417
191
417
418
191
187
926
187
926
187
926
187
926
187
926
187
926
187
926
187
926
187
926
187
637
653
637
653
900
377
900
377
900
377
900
411
900
411
900
419
900
419
900
419
900
653
919
637
653
919
637
653
919
637
919
637
919
926
411
377
419
900
30
631
30
631
30
631
30
631
30
631
30
631
70
924
30
924
30
70
631
634
650
924
634
650
924
634
650
924
634
924
634
924
634
924
634
924
730
731
254
731
254
731
730
731
730
731
730
731
730
731
730
731
921
927
278
927
278
927
278
927
278
927
278
927
731
925
254
925
254
925
254
925
254
925
254
278
927
921
927
921
927
921
237
238
393
237
238
393
237
238
393
237
238
393
237
238
393
237
238
393
237
238
393
237
238
393
237
238
393
237
238
393
237
238
393
255
538
255
538
255
538
255
538
255
538
627
574
627
420
421
759
574
627
421
759
420
759
420
759
421
759
421
759
421
759
421
759
421
759
421
759
627
421
759
627
460
547
102
547
102
547
102
532
135
532
135
532
135
532
135
532
135
532
510
532
510
532
510
532
510
532
100
933
100
933
100
933
100
933
100
933
100
933
100
933
100
933
100
933
424
425
271
364
271
364
424
425
271
364
424
425
271
364
424
271
364
425
271
364
425
271
364
425
271
425
271
425
271
289
482
289
482
289
701
289
701
289
701
603
157
603
157
625
157
625
157
625
157
625
159
157
625
159
701
603
157
625
159
701
603
157
625
159
701
603
157
701
157
159
625
603
885
474
885
474
885
474
885
474
885
474
885
474
885
474
885
474
885
474
885
474
482
692
124
692
124
692
124
692
124
692
124
692
124
703
114
112
114
112
114
116
114
116
114
116
168
189
168
189
168
189
168
189
168
189
168
189
168
189
168
812
76
812
908
340
447
340
447
340
908
340
908
340
908
812
908
812
908
812
908
812
908
812
908
812
908
812
908
503
355
503
355
503
355
503
355
503
355
503
355
503
355
503
355
503
355
447
340
76
812
76
77
76
77
76
77
76
77
76
77
792
76
792
76
792
437
792
437
439
792
439
792
439
792
439
792
439
792
439
935
792
778
599
778
599
778
599
778
599
778
599
778
599
778
599
778
599
778
792
935
778
804
68
71
151
68
71
151
68
71
151
68
71
151
68
151
68
151
68
151
68
151
71
151
71
151
71
151
71
202
220
202
220
202
220
202
220
202
220
202
220
202
220
202
860
225
202
465
777
465
777
465
777
465
777
465
777
465
777
494
365
494
365
494
493
494
493
494
495
494
495
494
777
557
777
557
739
329
331
329
331
530
329
530
329
530
329
530
329
530
329
530
739
329
530
739
329
530
739
329
530
739
530
667
674
667
674
667
674
667
672
674
672
674
672
674
672
674
672
674
784
745
579
580
579
580
579
580
579
580
579
580
579
580
579
580
584
579
580
584
580
584
580
584
580
584
745
784
745
784
745
784
745
784
452
552
470
818
470
818
470
818
820
818
820
818
820
818
820
895
348
895
348
895
348
895
348
895
348
422
286
422
286
422
286
422
286
895
422
286
895
422
895
422
895
422
895
422
546
522
546
524
522
524
522
524
522
524
522
524
522
524
522
524
522
546
524
546
524
546
524
286
552
452
552
452
552
452
552
452
552
452
552
452
383
552
383
552
383
552
452
383
552
452
383
818
470
397
962
344
962
344
962
344
962
344
962
344
962
397
962
397
962
397
470
397
470
397
470
397
470
397
470
397
962
344
346
344
346
344
346
825
344
825
344
825
826
825
826
889
825
889
781
959
781
959
781
959
811
781
959
811
781
959
811
781
959
811
781
959
811
781
959
811
781
959
811
781
811
959
811
959
263
15
263
15
263
15
263
865
83
865
207
83
207
83
207
83
207
83
207
83
207
83
865
207
83
865
207
865
207
865
207
224
865
224
865
224
865
224
865
224
865
224
143
249
143
273
249
143
273
249
143
273
249
143
273
249
143
273
249
143
273
249
143
273
249
143
273
249
273
249
273
249
918
898
968
80
918
898
968
80
918
898
968
80
918
898
968
80
918
898
968
80
918
898
968
80
918
898
968
80
918
968
80
918
968
80
918
968
80
918
80
898
968
78
81
78
81
78
81
78
81
78
81
78
81
747
78
747
78
747
78
747
78
747
526
544
526
544
526
544
526
544
526
544
747
526
544
747
544
747
544
747
544
747
544
747
544
737
802
737
802
737
802
737
802
737
802
737
802
737
802
737
802
737
802
737
802
14
16
31
14
16
31
14
16
31
14
16
31
14
31
14
31
14
31
14
31
16
31
16
31
828
969
829
969
829
969
829
969
829
830
969
830
969
830
969
830
969
828
829
969
828
969
384
969
384
720
724
720
724
970
720
724
970
720
724
970
720
970
721
720
970
721
720
721
724
970
740
401
740
971
740
971
740
971
740
971
972
287
972
287
972
287
972
287
972
287
506
551
47
551
47
551
47
551
47
551
506
551
506
551
976
551
976
551
976
551
976
551
976
47
903
838
283
897
261
897
261
897
283
897
283
897
283
897
283
897
283
897
283
897
283
897
539
261
897
539
261
539
714
712
713
712
714
712
714
712
22
591
22
591
22
712
22
713
22
713
22
713
22
713
22
713
712
22
713
712
22
713
712
22
586
591
586
591
586
587
591
587
591
478
480
478
480
136
610
136
975
136
479
610
479
610
479
610
479
610
479
610
479
610
479
610
479
975
610
974
33
649
32
33
649
32
33
649
32
33
649
32
649
32
649
33
974
33
974
32
649
481
38
481
38
481
38
881
38
881
38
881
38
881
38
881
38
881
38
881
38
410
396
410
396
410
396
410
481
410
481
410
481
410
528
410
528
410
528
410
528
410
528
459
396
459
396
407
881
407
881
407
881
798
481
502
798
481
798
502
798
502
798
502
798
502
798
502
798
502
798
502
850
502
850
241
604
764
241
604
764
241
604
764
241
604
764
241
604
764
241
604
764
241
604
764
241
764
241
764
604
764
154
663
966
440
757
440
757
440
757
440
757
440
757
758
757
758
757
758
757
758
757
300
833
300
758
197
72
197
72
197
72
197
72
197
72
197
72
560
72
560
72
560
72
560
72
560
475
560
475
560
475
560
475
622
434
435
434
435
434
435
434
435
434
435
434
435
622
435
622
435
622
435
622
435
622
623
622
623
622
623
622
623
622
623
434
435
821
354
356
821
354
821
356
821
356
821
354
356
186
356
186
356
186
717
718
717
718
717
718
717
718
967
717
718
967
717
718
967
717
967
717
967
717
967
717
967
717
967
832
833
832
833
834
833
834
833
834
833
834
833
834
833
834
295
719
295
719
295
719
295
719
295
719
295
719
356
719
356
719
488
230
901
488
230
901
488
965
230
901
965
230
901
965
230
655
965
655
965
655
965
655
965
655
965
655
965
655
901
965
901
965
185
65
44
65
44
65
66
65
66
298
216
97
96
97
96
97
216
97
216
298
216
298
216
298
216
298
415
298
415
298
415
298
415
298
415
445
415
445
415
445
800
415
445
800
415
800
415
800
415
800
445
961
445
961
445
961
445
961
445
961
445
961
445
961
216
96
97
842
97
840
842
840
842
840
842
25
611
25
611
25
611
25
611
980
25
611
980
25
980
25
980
25
980
25
980
25
489
490
611
980
489
490
611
980
489
490
611
980
61
979
90
609
979
90
978
643
733
891
978
891
978
891
86
978
86
978
86
978
86
978
86
978
90
979
90
979
90
979
90
979
609
69
859
69
859
69
859
69
859
69
859
658
69
859
658
69
658
767
658
767
658
767
658
767
658
767
658
767
770
658
770
859
389
351
389
351
389
351
389
351
284
857
42
43
103
42
43
103
43
103
43
103
43
103
43
103
43
103
43
103
685
614
685
614
685
614
685
53
686
872
884
888
727
728
727
728
727
728
727
728
727
728
854
884
854
884
854
884
872
884
872
884
872
888
884
872
686
872
686
872
884
64
545
64
545
64
884
64
884
728
553
728
553
874
46
874
46
874
46
874
46
874
46
953
409
953
409
953
409
953
409
953
409
953
409
953
409
953
409
598
950
598
950
598
950
886
7
360
7
360
7
360
7
360
7
360
7
360
7
360
7
360
7
949
7
949
7
949
360
949
751
515
518
193
518
193
518
193
518
193
518
193
913
914
913
914
913
914
913
914
913
914
515
751
515
751
515
751
951
795
951
795
951
795
951
795
951
795
951
795
756
755
756
755
756
795
756
795
797
795
797
755
756
436
572
882
664
882
664
666
664
666
572
836
572
882
664
193
518
3
518
3
518
3
518
3
518
3
886
950
886
950
886
950
886
950
886
950
886
950
877
517
877
463
814
815
789
790
796
815
796
815
796
815
814
815
814
815
814
815
814
815
814
815
814
815
814
815
796
791
790
789
790
789
790
789
790
789
790
789
790
789
790
789
790
791
790
791
790
791
796
791
796
791
796
791
796
791
796
791
796
791
882
664
193
436
193
436
193
436
572
436
572
836
198
836
198
836
198
836
198
836
198
836
198
836
198
836
198
836
198
836
198
852
531
852
531
852
531
948
852
948
852
948
852
948
852
948
852
948
852
948
852
948
852
948
531
682
657
412
657
682
657
682
657
682
412
657
682
657
342
152
52
53
52
53
152
53
152
53
152
53
152
53
152
53
342
657
342
657
342
657
342
657
342
685
342
685
614
647
614
647
614
647
614
647
614
647
614
647
614
647
120
793
105
793
105
793
105
793
120
793
120
793
120
793
120
793
120
793
105
378
105
378
105
378
761
762
597
763
761
762
597
763
761
762
761
763
761
763
761
763
762
761
763
762
761
763
762
763
597
643
978
90
979
61
979
61
979
61
979
90
389
90
462
90
462
284
462
284
462
284
462
284
462
558
977
558
977
558
977
558
977
558
977
558
977
558
977
558
977
857
371
857
371
857
977
857
977
371
454
315
454
315
454
315
454
315
454
315
454
315
454
315
454
315
507
201
507
201
507
201
507
201
854
201
854
201
854
201
854
201
854
201
854
201
854
201
854
884
64
545
63
545
63
545
63
545
63
545
63
545
63
765
63
765
63
765
63
765
63
765
63
765
302
951
302
951
751
149
751
149
751
149
953
409
46
409
46
409
46
709
46
709
242
375
242
375
242
375
242
375
242
375
242
375
242
375
242
375
242
375
735
314
592
314
735
375
735
375
735
776
735
776
735
776
735
776
735
776
735
776
735
776
735
776
808
776
808
592
593
592
593
592
593
592
593
592
593
592
593
314
309
317
56
317
56
317
309
317
309
317
309
317
309
317
816
317
10
8
10
8
10
8
10
947
8
10
947
8
10
947
8
10
947
8
10
947
8
10
947
8
947
8
947
8
947
56
327
56
327
56
327
56
327
816
594
596
594
596
594
596
594
596
594
596
594
596
595
512
595
512
165
101
165
101
165
101
165
101
165
101
165
101
165
101
165
101
517
406
357
87
357
406
357
406
357
406
357
406
517
406
87
357
301
562
379
380
379
380
605
646
606
646
221
222
561
646
605
646
605
606
646
605
646
561
221
561
221
561
221
561
221
561
221
561
222
561
222
561
646
562
301
562
301
562
301
562
301
562
301
562
301
562
646
561
51
561
51
839
51
839
51
839
51
839
51
839
51
839
51
839
51
839
464
463
464
877
464
877
464
877
464
877
464
877
464
877
464
877
464
877
464
548
786
548
786
548
786
548
786
548
856
548
856
548
856
548
856
548
856
548
867
548
867
871
867
871
867
871
867
871
867
871
867
871
867
871
867
871
867
871
867
871
856
786
618
245
367
245
367
899
245
367
899
245
367
899
245
367
899
245
367
899
245
367
899
245
899
245
899
245
899
446
246
188
246
188
246
188
246
188
246
946
446
246
946
446
246
946
446
246
946
446
246
946
446
246
946
446
946
446
946
446
946
446
946
446
946
246
167
171
339
167
171
339
167
171
339
167
171
339
167
171
339
167
171
339
167
171
339
167
171
339
167
339
171
339
171
339
188
373
188
373
188
373
461
590
29
432
590
307
432
29
432
29
432
307
432
307
432
307
590
432
590
432
590
432
590
461
590
461
581
461
581
683
581
683
581
683
581
683
262
214
213
214
213
214
262
214
262
285
262
285
262
485
487
214
487
214
487
214
487
485
487
485
487
485
487
485
487
943
292
943
292
943
292
943
292
943
292
11
292
11
290
292
118
292
131
247
75
247
75
247
75
247
75
247
129
247
129
247
131
247
131
247
131
248
131
248
131
248
131
292
131
347
292
290
292
290
156
847
846
156
847
846
156
847
846
156
848
652
156
848
652
156
848
652
846
156
848
652
846
156
652
848
847
846
847
848
644
565
566
644
566
565
566
565
566
565
566
565
566
628
565
566
628
505
509
505
509
505
509
944
505
509
944
505
509
944
509
944
509
944
509
944
118
213
214
285
299
75
299
945
299
945
75
129
247
131
347
248
341
749
92
749
92
541
92
541
92
541
92
541
92
541
92
541
92
541
92
541
92
541
629
912
629
912
629
743
629
906
629
906
743
306
675
62
675
82
675
82
675
82
675
82
675
82
181
182
181
182
181
182
181
182
181
182
181
182
181
182
181
182
184
181
182
184
181
182
184
62
675
62
37
693
695
693
695
693
695
693
695
780
148
13
126
13
126
13
126
125
13
126
125
13
126
125
13
126
125
13
148
13
148
200
148
200
148
200
148
200
148
200
148
200
148
200
148
200
148
200
13
125
126
125
126
887
36
940
887
36
940
887
36
680
807
680
807
680
807
680
807
680
807
680
807
680
807
905
807
940
887
36
940
36
940
36
940
199
940
199
940
199
940
441
940
441
199
107
570
473
688
704
473
688
704
473
688
704
473
704
688
704
688
704
715
768
281
4
281
259
281
259
281
259
281
259
281
768
281
768
715
768
715
768
715
768
715
768
4
281
920
281
920
281
920
259
618
786
618
786
455
642
455
642
455
642
455
642
455
642
455
642
455
642
455
642
455
642
455
642
577
774
577
855
577
855
577
855
577
855
577
855
577
855
577
855
774
577
402
570
107
570
402
570
402
855
774
146
147
146
147
146
147
146
147
146
147
146
942
146
942
146
942
146
942
146
942
147
146
942
147
905
177
179
905
177
179
905
177
179
905
177
179
905
177
905
177
905
177
905
179
677
680
677
9
12
9
12
9
12
9
12
208
9
12
208
9
12
208
9
12
208
638
9
12
638
9
12
638
12
638
698
312
698
312
698
312
698
312
698
651
742
698
651
742
698
651
742
698
651
742
698
651
742
698
651
742
312
691
780
691
780
691
780
691
780
691
780
691
780
691
780
691
780
691
912
629
37
62
37
62
37
629
37
629
341
306
341
306
341
306
341
629
341
629
541
45
541
45
540
521
240
876
849
841
849
841
849
841
849
841
849
841
849
841
849
876
875
876
875
876
841
849
180
876
240
876
240
876
240
876
240
876
240
875
876
240
521
240
521
240
521
370
521
540
521
540
521
540
521
540
607
540
607
540
607
540
607
540
607
540
607
540
607
370
521
783
939
711
710
711
710
711
710
711
710
711
710
711
939
711
939
783
939
783
939
783
939
783
939
783
939
783
939
783
939
783
939
710
711
467
923
467
923
467
923
467
923
467
923
467
923
785
923
785
923
785
923
785
923
785
267
477
267
477
267
477
267
477
267
477
267
477
267
868
450
162
144
868
477
267
868
477
656
858
656
858
656
922
656
922
656
922
858
656
922
858
656
858
390
858
390
240
876
180
426
180
426
180
426
180
426
180
426
180
426
180
426
748
180
748
180
748
654
466
654
514
654
514
654
514
911
654
911
654
911
654
911
941
911
941
466
654
466
602
466
602
41
817
41
817
41
817
543
217
543
217
293
217
293
217
293
217
293
217
293
217
444
293
217
444
293
217
444
293
217
444
293
217
444
293
444
293
444
723
17
40
702
723
702
54
17
54
40
54
40
54
40
54
40
54
294
54
294
175
113
175
333
175
333
175
333
771
931
771
931
771
931
771
931
771
931
600
771
600
39
433
39
433
39
433
39
433
501
600
39
600
501
381
382
233
400
381
382
233
400
381
382
381
382
381
382
381
382
381
382
381
382
381
382
400
381
382
400
381
382
400
233
554
233
554
760
233
702
54
702
233
702
233
760
233
760
233
760
233
760
416
394
416
394
416
394
416
394
416
394
304
394
304
394
304
394
304
394
304
394
304
883
873
60
873
60
873
60
873
883
873
60
519
60
519
60
519
60
519
60
519
60
519
60
519
60
519
527
823
303
305
303
305
303
305
303
99
303
99
303
99
303
305
99
303
305
99
303
305
99
520
823
520
387
520
387
520
823
527
823
527
823
527
823
527
519
527
519
525
527
525
527
525
527
525
527
525
527
823
520
387
388
387
388
387
388
387
388
387
388
476
387
476
387
476
387
476
308
134
219
121
142
121
142
121
142
121
142
121
142
121
142
392
121
219
134
219
218
219
218
219
218
219
578
134
219
578
134
219
578
134
308
218
219
578
134
578
134
578
134
578
176
864
176
864
310
332
310
332
310
332
316
662
316
662
316
866
310
866
310
866
310
866
310
866
210
211
210
211
210
211
210
211
210
211
210
211
134
121
392
121
392
121
392
366
806
121
806
366
806
366
806
837
700
837
700
837
700
472
700
472
810
915
810
472
810
472
810
472
810
472
810
472
810
472
810
915
128
810
915
128
915
128
915
128
432
29
361
29
361
29
361
29
361
29
361
29
361
29
361
29
361
624
133
324
28
324
133
324
133
324
133
324
133
324
133
324
624
133
624
133
624
28
633
28
633
28
633
28
633
28
633
28
633
28
633
324
766
324
766
324
766
324
766
133
909
133
909
133
909
256
130
952
130
952
130
952
130
952
130
952
130
5
130
256
130
256
130
265
256
423
256
423
256
423
256
423
256
423
256
5
952
130
265
423
746
423
746
423
746
423
746
662
226
227
226
227
226
227
226
227
226
235
227
226
235
227
226
235
227
226
235
227
235
227
235
227
235
164
166
164
166
408
635
408
635
408
635
408
404
636
938
404
636
938
404
636
938
404
938
404
938
404
938
404
938
404
938
404
938
843
164
843
164
843
164
843
164
843
164
843
164
843
164
843
164
843
164
843
754
869
769
145
251
769
145
251
769
145
251
769
145
251
769
569
769
569
769
569
769
845
769
845
569
145
251
769
869
754
869
754
635
754
635
754
635
754
635
754
635
754
635
754
635
754
635
869
34
869
34
869
34
869
34
869
34
869
34
869
34
869
34
769
145
251
145
251
275
251
275
251
275
660
57
660
57
660
57
661
660
57
661
660
57
661
660
57
661
660
57
661
660
57
661
660
57
661
660
661
660
661
57
26
679
782
679
26
679
26
679
26
679
26
471
733
471
733
471
955
471
955
471
955
471
955
471
955
471
955
471
955
471
955
471
955
676
679
676
679
782
323
782
323
782
323
782
323
782
323
782
323
782
323
782
323
391
504
736
504
391
779
809
779
809
779
809
589
137
274
250
533
250
533
504
492
504
492
504
533
504
533
492
504
575
504
575
328
353
328
353
328
353
328
353
328
353
330
328
353
330
328
330
353
44
65
185
65
185
73
185
73
185
73
258
73
258
73
258
73
258
73
258
185
73
258
185
73
258
185
73
258
185
73
65
185
258
185
65
44
48
44
48
491
736
491
736
491
736
491
736
497
736
497
429
750
429
750
429
750
429
750
429
750
429
750
429
750
429
750
451
917
451
917
451
917
451
917
403
405
229
403
405
229
403
405
229
403
405
229
405
229
405
229
405
229
405
229
405
229
687
20
21
20
21
20
21
20
21
20
21
20
21
687
20
687
20
687
229
20
687
716
50
716
50
716
50
716
50
716
50
716
50
716
50
716
115
716
687
716
687
115
716
343
966
343
345
343
345
343
345
343
345
343
345
343
345
343
345
343
345
343
345
50
663
496
663
496
663
496
663
496
663
496
803
496
844
496
844
79
74
349
838
349
74
79
74
79
74
79
74
79
74
79
74
79
74
79
74
79
74
349
74
349
838
349
838
349
838
903
838
903
838
903
838
903
47
689
741
689
741
689
741
689
741
689
690
705
690
705
690
705
690
705
690
705
690
705
690
741
690
973
741
690
973
741
706
690
973
705
741
706
903
98
903
98
401
740
98
740
401
160
401
160
401
160
401
160
401
196
160
401
196
160
196
401
196
401
196
401
196
803
496
154
496
154
496
154
496
663
50
442
50
442
119
442
438
442
438
119
665
442
665
442
665
442
665
442
665
442
665
442
665
442
665
678
681
678
681
678
681
678
681
678
49
681
49
681
49
681
49
681
49
681
678
49
681
678
49
681
678
49
19
24
19
24
19
24
19
24
19
24
19
24
19
24
19
272
19
272
24
272
163
272
163
268
787
964
787
964
787
964
787
964
268
15
268
15
964
15
964
15
964
15
964
15
964
268
15
964
268
15
555
138
555
138
555
138
555
138
555
556
555
556
555
556
555
556
138
555
138
141
138
141
138
141
963
822
963
822
963
822
722
110
109
110
109
110
109
110
109
110
109
110
109
110
722
822
722
109
110
483
648
85
84
85
84
85
94
85
648
85
648
85
648
483
89
468
469
669
89
468
469
669
89
468
469
669
89
468
469
669
89
468
669
469
669
469
669
469
523
468
669
523
468
669
523
669
55
59
55
59
542
648
542
648
542
648
542
648
542
648
542
645
648
645
648
84
85
93
94
93
94
93
94
93
94
93
94
93
94
93
94
172
173
172
173
172
352
957
172
957
172
957
173
172
957
173
172
957
173
172
957
173
172
957
173
172
957
173
640
957
173
957
352
640
819
853
819
853
819
853
819
853
819
853
819
853
819
853
500
236
752
260
236
752
260
537
752
260
537
752
260
537
752
260
537
752
260
537
752
260
752
260
752
236
169
170
169
170
169
170
169
170
169
170
413
937
363
362
363
362
363
362
414
362
414
362
414
363
362
414
363
362
414
937
363
414
937
413
937
413
937
413
937
413
937
413
937
413
937
362
414
266
276
697
276
697
458
696
697
696
697
696
697
204
205
206
910
870
699
870
699
870
699
870
699
372
870
910
870
910
870
910
870
372
398
372
398
372
398
372
398
372
398
372
398
372
398
729
252
729
252
729
252
729
252
729
398
252
729
734
729
734
729
734
893
282
753
282
753
282
753
282
753
893
282
753
893
282
753
893
282
753
893
753
893
753
893
753
260
236
169
236
169
236
169
236
500
236
500
236
500
499
500
499
500
499
239
535
239
535
239
6
535
239
535
6
535
6
535
6
535
6
535
174
535
174
535
174
954
174
954
174
954
174
954
174
954
535
174
954
617
819
621
617
619
620
619
620
619
620
619
620
619
620
621
617
619
620
621
617
619
621
619
621
619
621
619
621
620
851
318
639
318
639
318
639
318
639
318
639
319
639
319
639
319
639
319
639
851
318
319
958
616
958
616
958
616
958
616
958
616
958
616
958
616
894
890
813
890
813
890
813
890
894
890
958
890
958
890
958
894
890
958
894
813
890
639
907
851
907
851
907
851
907
851
907
851
907
851
907
851
907
851
907
851
907
385
641
385
641
385
641
385
956
386
788
641
386
788
641
386
788
641
386
788
956
386
788
956
386
956
386
956
641
430
215
122
123
122
123
122
123
122
123
122
215
122
215
122
215
122
215
122
215
122
215
123
122
215
123
376
585
215
430
215
430
215
585
376
585
376
585
376
585
376
585
376
585
376
585
376
585
376
585
106
337
106
337
484
337
484
337
608
337
608
337
608
484
359
58
359
58
359
58
359
58
359
266
297
266
297
266
297
266
359
266
359
266
359
484
486
484
486
484
486
484
486
484
486
484
486
58
359
297
613
484
613
484
613
670
613
670
613
670
613
670
613
670
613
670
613
670
67
567
67
567
67
567
67
567
67
195
567
195
567
195
799
195
799
195
799
195
799
195
799
195
799
195
799
195
799
195
799
567
568
567
568
567
568
567
568
513
516
550
513
550
671
513
550
671
513
550
671
513
550
671
513
550
671
513
550
671
513
550
671
513
671
513
671
513
516
671
288
671
288
529
612
529
612
529
612
529
612
529
612
529
612
960
529
612
960
529
960
529
960
579
745
784
674
784
674
784
745
270
745
270
745
270
745
270
745
270
334
335
336
334
335
336
334
335
336
334
335
336
334
335
336
334
335
336
334
336
334
336
334
338
335
336
338
335
338
336
831
91
194
831
91
194
831
91
194
831
91
194
831
91
194
831
835
831
835
831
835
831
835
231
232
231
232
231
232
231
232
231
234
232
231
234
232
231
234
232
234
232
234
232
234
232
234
91
194
725
732
738
725
732
738
725
732
738
725
738
725
738
732
738
732
738
732
738
350
451
350
902
35
902
150
902
448
902
448
902
589
274
137
274
137
274
504
274
589
274
589
274
589
902
589
902
904
902
904
448
150
35
296
630
280
536
257
536
257
536
257
536
257
536
257
536
296
280
536
630
280
536
630
280
630
280
630
280
630
280
630
280
630
257
536
253
277
534
253
277
534
253
277
892
253
277
892
253
277
892
253
277
892
253
277
892
253
277
892
326
277
326
325
326
325
326
325
326
325
326
325
326
325
326
325
326
325
326
325
534
892
320
321
322
320
321
322
320
321
322
320
321
322
320
322
320
322
320
322
320
322
320
322
321
322
321
322
68
804
68
804
805
804
805
827
804
824
804
827
804
827
824
559
563
559
563
559
563
559
563
564
563
564
563
564
563
564
626
563
626
563
626
936
563
626
936
563
626
936
626
936
626
936
599
127
453
127
453
127
192
453
158
453
158
571
158
571
158
571
158
571
158
571
368
114
368
916
368
916
368
916
368
916
112
114
703
114
703
124
703
124
703
124
703
124
703
775
703
775
703
775
453
192
659
192
659
192
659
192
659
192
659
192
659
192
659
192
659
192
659
192
659
190
203
190
203
190
369
190
369
190
369
190
369
190
369
190
369
190
369
203
276
203
276
203
225
860
225
860
225
860
225
860
225
860
225
860
225
860
225
860
225
860
220
365
493
495
494
243
697
206
204
205
204
205
204
205
206
204
205
206
204
205
206
205
206
205
206
697
206
697
206
697
243
697
243
458
697
276
269
276
269
694
692
694
692
694
692
694
692
694
364
425
934
364
934
364
934
510
135
427
431
427
431
427
431
427
431
588
427
431
588
431
588
431
588
576
582
576
582
576
583
576
583
582
583
457
772
244
772
456
772
456
772
457
772
457
772
457
772
457
772
457
773
457
773
457
773
772
457
773
772
457
773
456
772
358
863
95
863
95
863
95
863
95
863
358
863
358
863
358
863
358
863
358
863
358
863
95
333
95
333
95
333
95
333
95
333
95
333
175
117
113
117
113
117
113
117
113
175
117
175
117
175
117
175
117
794
428
340
428
340
428
340
428
340
428
794
428
801
932
632
23
632
23
632
23
632
18
23
932
449
932
449
932
801
932
801
932
801
932
801
932
801
932
449
23
18
23
18
23
18
23
449
23
449
264
449
264
449
264
449
264
449
264
189
244
498
601
498
601
511
601
511
601
511
601
511
601
547
443
547
443
547
460
627
460
627
460
627
460
627
574
573
574
573
574
573
574
573
574
573
574
573
574
573
574
573
574
573
460
443
547
601
744
601
744
601
744
601
744
511
132
108
132
108
132
108
132
108
132
108
726
862
726
862
726
862
726
862
726
862
726
929
726
929
726
929
861
726
929
861
726
929
861
726
861
929
861
929
861
929
861
929
861
929
861
862
929
395
313
708
228
708
228
209
212
209
212
209
212
209
212
209
212
209
212
928
209
212
928
209
212
928
209
212
928
209
212
928
209
928
708
313
311
313
311
313
395
313
395
313
395
313
395
228
708
27
708
27
708
27
708
27
104
223
104
223
868
104
868
104
868
144
450
88
450
88
450
88
450
88
161
162
161
162
161
162
161
162
161
162
161
162
161
162
161
162
450
144
615
144
615
144
615
399
140
139
399
140
139
399
139
930
140
139
930
140
139
930
140
139
930
140
139
140
930
140
930
140
930
183
708
183
311
313
707
313
707
313
707
668
673
144
673
144
673
144
673
668
673
668
673
668
673
668
673
